c This is an instance of the exact track of PACE 2020 Challenge, see https://pacechallenge.org/2020/ 
c TYPE: infrastracture 
c ORIGIN: Open street maps 
c DESCRIPTION: San Marino: a road network downloaded from open street maps using osmnx Python package 
p tdp 451 587
1 294
1 295
1 19
2 103
2 3
2 22
3 21
3 4
3 22
4 21
4 27
4 26
5 226
5 140
6 109
6 108
7 107
7 110
7 109
8 331
8 262
9 328
9 327
9 449
10 434
10 98
10 432
11 158
11 227
11 73
12 63
12 234
12 416
13 232
13 70
13 69
14 201
14 199
14 230
15 446
15 136
15 381
16 136
16 113
16 198
17 111
17 198
17 115
18 23
18 317
18 136
19 370
19 20
20 22
20 21
23 27
23 24
24 25
24 27
25 32
25 28
26 27
26 32
28 320
28 33
29 213
29 37
29 210
30 411
30 215
30 214
30 213
31 53
31 420
31 422
32 309
32 33
33 308
33 310
33 319
34 391
34 205
35 355
35 208
35 209
36 209
36 211
36 37
37 212
37 215
38 248
38 246
38 47
39 224
39 245
39 194
40 76
40 86
40 194
41 157
41 144
41 154
42 440
42 149
42 157
43 184
43 444
43 44
44 446
44 447
45 78
45 75
45 238
46 47
46 203
46 225
47 48
48 69
48 248
49 246
49 67
49 50
50 245
50 67
51 75
51 240
51 386
52 384
52 437
52 387
53 262
53 426
54 426
54 423
54 424
54 260
55 56
55 59
55 60
56 57
56 64
57 58
57 64
58 61
58 59
59 60
59 61
60 264
61 62
62 268
62 265
63 415
63 268
64 90
65 138
65 139
66 181
66 158
66 95
67 383
68 79
68 76
68 325
69 70
70 225
71 73
71 389
71 236
72 79
73 435
74 147
75 195
76 78
76 224
77 389
78 237
79 81
80 155
80 86
81 156
81 147
82 435
82 436
82 393
83 405
83 406
83 206
84 393
84 392
84 434
85 146
85 145
85 195
87 91
88 192
88 155
88 194
89 445
89 96
89 261
90 116
90 112
91 99
91 95
91 93
92 96
93 448
94 448
95 97
96 256
97 415
97 101
98 328
98 99
99 227
100 450
100 102
100 449
101 265
101 450
103 141
103 226
104 373
104 375
104 117
105 382
105 141
105 142
106 152
107 110
108 110
109 118
111 198
111 112
111 114
111 113
111 116
112 113
114 115
114 116
115 317
118 269
119 269
119 125
119 223
120 121
120 269
120 359
121 132
121 167
122 168
122 124
122 132
123 228
123 401
124 208
124 211
125 402
125 163
126 312
126 297
126 170
126 279
127 131
127 129
127 365
128 350
128 356
128 352
129 133
129 131
130 362
130 365
130 361
131 166
132 361
133 221
133 363
134 358
135 358
137 140
137 226
137 138
138 139
141 142
143 148
144 150
144 154
145 325
145 156
146 241
146 148
147 159
147 438
148 156
149 160
149 155
150 153
150 160
151 158
152 442
152 187
154 438
157 160
161 167
162 168
164 168
165 180
166 361
166 169
167 395
170 243
170 172
171 173
171 243
171 346
172 176
172 352
173 174
173 351
174 391
174 270
175 177
175 271
175 451
176 270
176 177
177 271
178 354
178 272
178 179
179 410
179 404
179 355
179 409
180 212
180 417
181 416
181 182
182 183
182 388
183 390
183 224
184 185
185 187
185 186
186 192
186 193
187 188
189 191
190 191
191 193
192 193
195 325
196 222
196 419
196 418
197 222
199 381
199 326
200 201
201 202
202 203
202 230
203 267
203 225
204 307
204 403
204 205
205 403
205 206
206 320
206 403
207 209
207 210
207 408
208 209
209 210
209 211
212 417
213 418
214 419
214 421
215 216
217 218
218 219
219 287
219 397
220 294
220 396
220 305
221 354
221 352
221 356
222 422
227 392
228 229
230 267
231 250
231 235
231 233
232 234
232 233
233 235
233 250
234 235
236 324
236 436
236 237
237 390
238 239
239 387
240 241
242 289
242 286
242 312
243 244
245 249
246 247
247 248
247 249
249 250
251 252
252 445
252 254
253 254
254 263
255 256
256 258
257 258
258 260
259 260
262 428
263 264
263 266
264 266
265 266
267 268
270 404
271 273
272 451
274 308
275 334
275 312
275 276
277 289
277 278
277 315
278 279
278 293
279 306
280 398
280 293
280 315
281 288
281 283
281 322
282 290
283 292
283 290
284 400
284 292
284 302
285 295
286 287
286 311
287 288
288 289
290 292
291 294
291 295
293 298
296 314
299 300
300 302
300 314
301 307
302 400
303 306
304 305
305 372
306 307
308 310
309 372
309 310
312 313
314 323
315 322
316 318
316 321
316 320
317 321
319 320
319 403
321 374
322 398
324 437
327 331
327 430
327 428
328 414
329 430
329 331
329 330
332 334
333 335
333 334
335 338
336 338
337 341
338 341
339 340
340 342
340 341
342 343
342 344
343 366
343 344
344 357
345 347
345 366
345 348
347 349
347 350
353 356
354 355
357 368
357 358
359 363
359 362
360 367
360 369
362 364
363 364
364 365
366 367
367 368
368 369
371 373
372 400
375 376
376 379
376 380
377 381
378 379
379 382
384 385
384 386
385 386
385 387
389 390
392 434
393 394
394 432
396 397
398 399
401 402
404 405
405 409
405 406
406 407
407 408
407 410
408 410
409 410
411 420
411 412
413 431
414 430
414 431
415 416
418 419
420 421
421 422
425 426
426 427
428 429
431 432
433 434
435 436
436 437
438 439
440 443
440 441
442 443
445 448
449 450
